25087,
24709,
23250,
22600,
22102,
21393,
20978,
19813,
19813,
19813,
19810,
19387,
19272,
18880,
18785,
18530,
18503,
18404,
18404,
18394,
17797,
17797,
17786,
17786,
17778,
17778,
17658,
17658,
17556,
17556,
17556,
17519,
17519,
17519,
17351,
17351,
17266,
17098,
17098,
17075,
16976,
16976,
16976,
16976,
16949,
16949,
16949,
16898,
16898,
16898,
16737,
16737,
16660,
16601,
16601,
16601,
16601,
16601,
16601,
16601,
16601,
16601,
16601,
16601,
16601,
16601,
16601,
16601,
16601,
16601,
16601,
16601,
16601,
16601,
16601,
16601,
16601,
16601,
16601,
16601,
16601,
16601,
16601,
16601,
16601,
16601,
16601,
16601,
16601,
16601,
16161,
16161,
16161,
16161,
16161,
16161,
16040,
16040,
16005,
15896,
15861,
15861,
15861,
15861,
15861,
15861,
15861,
15861,
15694,
15694,
15694,
15694,
15694,
15694,
15694,
15694,
15694,
15694,
15694,
15694,
15694,
15694,
15694,
15694,
15694,
15694,
15694,
15694,
15694,
15694,
15694,
15694,
15694,
15694,
15694,
15694,
15694,
15694,
15694,
15694,
15694,
15694,
15694,
15694,
15694,
15694,
15694,
15694,
15694,
15694,
15694,
15648,
15648,
15648,
15648,
15648,
15571,
15511,
15435,
15435,
15435,
15435,
15435,
15435,
15435,
15435,
15435,
15435,
15435,
15340,
15340,
15340,
15340,
15340,
15340,
15340,
15340,
15340,
15340,
15340,
15340,
15340,
15340,
15340,
15340,
15340,
15340,
15144,
15144,
15144,
15144,
15144,
15144,
15144,
15144,
15144,
15045,
15045,
15045,
15045,
15045,
15045,
15045,
15045,
15045,
15045,
15045,
15045,
15045,
15045,
15045,
15045,
15045,
15045,
15045,
15045,
15045,
15045,
15045,
15045,
15045,
15045,
15045,
15045,
15045,
15045,
15045,
15045,
15045,
15045,
15045,
15045,
15045,
15045,
15045,
15045,
15045,
15045,
15045,
15045,
15045,
15045,
15045,
15045,
15045,
15045,
15045,
15045,
15045,
15045,
15045,
15045,
15045,
15045,
15045,
15045,
15045,
15045,
15045,
15045,
15045,
15045,
15045,
15045,
15045,
15045,
15006,
15006,
15006,
15006,
15006,
15006,
15006,
15006,
15006,
15006,
15006,
14899,
14899,
14899,
14899,
14899,
14899,
14899,
14899,
14899,
14899,
14899,
14899,
14899,
14899,
14899,
14899,
14850,
14850,
14750,
14750,
14701,
14701,
14701,
14701,
14701,
14701,
14701,
14480,
14480,
14480,
14480,
14480,
14480,
14480,
14480,
14480,
14480,
14480,
14480,
14480,
14480,
14480,
14480,
14480,
14480,
14480,
14480,
14480,
14480,
14480,
14480,
14480,
14480,
14480,
14480,
14480,
14480,
14480,
14480,
14480,
14480,
14480,
14480,
14480,
14480,
14480,
14480,
14466,
14466,
14466,
14466,
14466,
14460,
14460,
14460,
14460,
14460,
14460,
14460,
14460,
14460,
14460,
14460,
14460,
14460,
14460,
14460,
14460,
14460,
14460,
14460,
14460,
14460,
14460,
14460,
14460,
14460,
14460,
14460,
14460,
14460,
14460,
14460,
14460,
14339,
14339,
14264,
14264,
14264,
14264,
14264,
14264,
14264,
14264,
14264,
14264,
14030,
14030,
14030,
14030,
14030,
13971,
13971,
13971,
13971,
13971,
13926,
13926,
13926,
13926,
13926,
13926,
13926,
13926,
13926,
13926,
13926,
13926,
13926,
13926,
13926,
13926,
13926,
13926,
13926,
13926,
13926,
13926,
13926,
13926,
13926,
13926,
13926,
13926,
13926,
13926,
13926,
13926,
13926,
13926,
13926,
13926,
13904,
13904,
13904,
13904,
13904,
13904,
13904,
13904,
13904,
13904,
13904,
13904,
13904,
13904,
13904,
13904,
13904,
13904,
13904,
13904,
13904,
13904,
13841,
13841,
13841,
13841,
13841,
13841,
13841,
13841,
13841,
13841,
13841,
13841,
13841,
13841,
13841,
13841,
13841,
13841,
13841,
13841,
13841,
13841,
13841,
13841,
13841,
13841,
13841,
13841,
13841,
13841,
13841,
13841,
13841,
13841,
13841,
13841,
13841,
13841,
13841,
13841,
13841,
13706,
13706,
13706,
13706,
13706,
13706,
13706,
13706,
13706,
13706,
13706,
13706,
13706,
13706,
13706,
13706,
13706,
13706,
13706,
13706,
13706,
13706,
13706,
13706,
13706,
13706,
13706,
13706,
13706,
13706,
13706,
13683,
13683,
13683,
13683,
13683,
13683,
13683,
13683,
13683,
13683,
13683,
13683,
13683,
13683,
13683,
13683,
13683,
13683,
13683,
13683,
13683,
13683,
13683,
13683,
13683,
13683,
13579,
13579,
13579,
13579,
13579,
13579,
13579,
13579,
13579,
13579,
13579,
13579,
13579,
13579,
13579,
13579,
13579,
13579,
13579,
13579,
13579,
13572,
13572,
13572,
13572,
13572,
13572,
13572,
13572,
13572,
13572,
13572,
13497,
13497,
13432,
13432,
13432,
13432,
13432,
13432,
13432,
13432,
13432,
13432,
13432,
13432,
13432,
13432,
13432,
13432,
13432,
13432,
13415,
13415,
13415,
13415,
13415,
13415,
13415,
13415,
13415,
13415,
13415,
13415,
13415,
13415,
13415,
13415,
13415,
13415,
13415,
13415,
13314,
13314,
13314,
13314,
13314,
13314,
13270,
13270,
13270,
13270,
13270,
13270,
13270,
13270,
13270,
13270,
13270,
13270,
13270,
13270,
13270,
13270,
13270,
13270,
13270,
13270,
13270,
13270,
13270,
13270,
13270,
13270,
13270,
13270,
13270,
13270,
13270,
13270,
13270,
13270,
13270,
13270,
13247,
13247,
13247,
13178,
13178,
13178,
13138,
13138,
13138,
13138,
13138,
13138,
13138,
13138,
13138,
13138,
13138,
13138,
13138,
13138,
13138,
13138,
13138,
13138,
13138,
13138,
13138,
13138,
13138,
13138,
13138,
13138,
13138,
13138,
13138,
13138,
13138,
13138,
13138,
13138,
13138,
13138,
13138,
13109,
13109,
13109,
13109,
13109,
13109,
13109,
13109,
13109,
13109,
13109,
13109,
13109,
13109,
13109,
13109,
13109,
13109,
13109,
13109,
13109,
13109,
13109,
13109,
13109,
13109,
13109,
13109,
13109,
13109,
13109,
13109,
12976,
12976,
12976,
12976,
12976,
12976,
12976,
12976,
12976,
12976,
12965,
12965,
12965,
12965,
12965,
12965,
12965,
12965,
12965,
12965,
12965,
12965,
12965,
12965,
12965,
12965,
12965,
12965,
12965,
12965,
12965,
12965,
12965,
12965,
12965,
12965,
12965,
12965,
12965,
12965,
12965,
12965,
12965,
12965,
12965,
12965,
12965,
12965,
12965,
12965,
12965,
12965,
12965,
12965,
12965,
12965,
12965,
12965,
12965,
12965,
12965,
12965,
12965,
12965,
12965,
12965,
12965,
12930,
12930,
12930,
12930,
12870,
12870,
12870,
12870,
12870,
12870,
12870,
12870,
12870,
12870,
12870,
12870,
12870,
12870,
12870,
12870,
12870,
12870,
12870,
12870,
12870,
12870,
12870,
12870,
12834,
12834,
12834,
12834,
12834,
12834,
12834,
12834,
12834,
12707,
12707,
12707,
12707,
12707,
12707,
12707,
12707,
12707,
12707,
12707,
12707,
12707,
12707,
12707,
12707,
12707,
12707,
12707,
12707,
12707,
12707,
12707,
12707,
12707,
12707,
12707,
12707,
12707,
12707,
12707,
12707,
12707,
12699,
12699,
12699,
12699,
12699,
12699,
12699,
12699,
12699,
12699,
12699,
12699,
12699,
12699,
12699,
12699,
12699,
12699,
12699,
12699,
12699,
12699,
12699,
12699,
12699,
12699,
12699,
12699,
12699,
12699,
12699,
12622,
12622,
12622,
12622,
12622,
12622,
12622,
12622,
12622,
12622,
12622,
12622,
12622,
12622,
12622,
12622,
12622,
12622,
12622,
12622,
12622,
12622,
12622,
12622,
12622,
12622,
12622,
12622,
12622,
12620,
12620,
12620,
12620,
12620,
12620,
12620,
12620,
12620,
12620,
12601,
12601,
12601,
12601,
12590,
12590,
12590,
12590,
12590,
12590,
12590,
12590,
12590,
12590,
12590,
12590,
12590,
12590,
12590,
12590,
12590,
12590,
12590,
12590,
12590,
12590,
12590,
12446,
12446,
12445,
12445,
12445,
12445,
12445,
12445,
12445,
12445,
12445,
12445,
12445,
12445,
12445,
12445,
12445,
12445,
12445,
12445,
12445,
12445,
12445,
12445,
12445,
12445,
12445,
12445,
12445,
12445,
12445,
12445,
12445,
12445,
12445,
12445,
12445,
12445,
12445,
12445,
12445,
12445,
12445,
12445,
12445,
12445,
12445,
12445,
12445,
12445,
12445,
12445,
12445,
12445,
12445,
12445,
12445,
12445,
12445,
12445,
12445,
12445,
12445,
12445,
12445,
12445,
12445,
12445,
12445,
12445,
12445,
12445,
12445,
12445,
12445,
12445,
12445,
12445,
12445,
12445,
12445,
12445,
12445,
12445,
12445,
12445,
12445,
12445,
12445,
12445,
12445,
12445,
12445,
12445,
12445,
12445,
12445,
12445,
12445,
12445,
12445,
12445,
12445,
12445,
12445,
12445,
12445,
12445,
12445,
12445,
12445,
12445,
12445,
12445,
12445,
12445,
12445,
12445,
12324,
12324,
12324,
12324,
12324,
12195,
12114,
12114,
12114,
12114,
12114,
12114,
12114,
12114,
12114,
12114,
12114,
12114,
12114,
12114,
12114,
12114,
12114,
12114,
12114,
12114,
12114,
12114,
12114,
12114,
12114,
12114,
12114,
12114,
12114,
12114,
12114,
12114,
12114,
12114,
12114,
12114,
12114,
12114,
12114,
12114,
12114,
12114,
12114,
12114,
12114,
12114,
12114,
12114,
12114,
12114,
12114,
12114,
12114,
12051,
12051,
12051,
12051,
12051,
12051,
12051,
12051,
12051,
12051,
12051,
12051,
12051,
11990,
11990,
11990,
11990,
11990,
11990,
11990,
11990,
11990,
11990,
11990,
11990,
11990,
11990,
11990,
11990,
11990,
11990,
11990,
11990,
11990,
11990,
11990,
11990,
11990,
11990,
11990,
11990,
11990,
11990,
11990,
11990,
11990,
11990,
11990,
11990,
11990,
11990,
11990,
11990,
11990,
11990,
11990,
11990,
11990,
11959,
11959,
11959,
11959,
11959,
11959,
11959,
11959,
11959,
11959,
11959,
11941,
11941,
11941,
11941,
11941,
11941,
11941,
11941,
11941,
11941,
11941,
11941,
11941,
11941,
11941,
11941,
11941,
11941,
11941,
11941,
11941,
11941,
11941,
11941,
11941,
11941,
11941,
11941,
11941,
11941,
11941,
11941,
11941,
11941,
11941,
11941,
11941,
11941,
11941,
11941,
11941,
11941,
11941,
11941,
11941,
11941,
11941,
11941,
11941,
11941,
11941,
11941,
11941,
11941,
11941,
11941,
11941,
11941,
11941,
11941,
11941,
11941,
11941,
11941,
11941,
11941,
11941,
11941,
11941,
11941,
11941,
11941,
11941,
11941,
11941,
11941,
11941,
11941,
11941,
11941,
11941,
11941,
11941,
11941,
11941,
11941,
11941,
11941,
11941,
11941,
11941,
11941,
11941,
11941,
11941,
11941,
11941,
11762,
11762,
11762,
11762,
11762,
11762,
11762,
11762,
11762,
11762,
11762,
11762,
11762,
11762,
11762,
11762,
11762,
11762,
11762,
11762,
11762,
11762,
11762,
11762,
11762,
11762,
11762,
11762,
11762,
11762,
11762,
11762,
11762,
11762,
11762,
11762,
11762,
11762,
11762,
11762,
11762,
11762,
11762,
11762,
11762,
11762,
11762,
11762,
11762,
11762,
11762,
11762,
11762,
11762,
11762,
11762,
11762,
11762,
11762,
11762,
11762,
11762,
11762,
11762,
11762,
11762,
11762,
11762,
11762,
11762,
11762,
11762,
11762,
11762,
11762,
11762,
11762,
11762,
11762,
11762,
11762,
11762,
11762,
11762,
11762,
11762,
11762,
11762,
11762,
11762,
11762,
11762,
11762,
11762,
11762,
11762,
11762,
11762,
11762,
11762,
11762,
11762,
11762,
11762,
11762,
11762,
11762,
11762,
11762,
11762,
11762,
11762,
11762,
11762,
11762,
11762,
11762,
11762,
11762,
11762,
11762,
11762,
11762,
11762,
11762,
11762,
11762,
11762,
11762,
11762,
11762,
11762,
11762,
11762,
11762,
11762,
11762,
11762,
11762,
11762,
11762,
11762,
11762,
11762,
11762,
11762,
11762,
11762,
11762,
11762,
11762,
11762,
11762,
11762,
11762,
11698,
11698,
11698,
11698,
11698,
11698,
11698,
11698,
11698,
11698,
11698,
11698,
11698,
11698,
11698,
11698,
11698,
11698,
11698,
11698,
11698,
1,
